NAME : EIL75C.590.tour
COMMENT : Cost = 0_590
COMMENT : Found by LKH [Keld Helsgaun] Sun Sep 17 16:52:40 2017
TYPE : TOUR
DIMENSION : 75
TOUR_SECTION
1
43
41
42
64
22
61
21
48
47
37
20
15
29
45
27
52
4
75
68
6
51
16
49
24
18
50
25
55
31
65
66
59
14
53
11
38
10
58
72
39
9
32
44
3
40
12
17
26
67
34
46
8
7
35
19
54
13
57
70
60
71
69
36
5
30
2
74
28
62
73
33
63
23
56
-1
EOF
